output/chemical change_ilp.lp
Maximize
  1.342501434301231e-04 Z_158_0_0 + 0.0339847236759669 Z_158_0_1
   + 0.8632386804372405 Z_158_0_2 + 0.00113377962413755 Z_158_0_3
   + 0.00150856611922506 Z_158_0_4 + 0.0167861558251828 Z_146_0_0
   + 0.0222431568775178 Z_146_0_1 + 0.0252279496602457 Z_146_0_2
   + 0.00110177710115094 Z_146_0_3 + 0.8346409605359029 Z_146_0_4
   + 0.0190375606383034 Z_730_3_0 + 0.00387816460776135 Z_730_3_1
   + 0.063839563220364 Z_730_3_2 + 0.0116301408027458 Z_730_3_3
   + 0.8016145707308255 Z_730_3_4 + 0.00284158315104538 Z_730_0_0
   + 0.00116988923621964 Z_730_0_1 + 0.2187980882972415 Z_730_0_2
   + 0.00384290847286344 Z_730_0_3 + 0.67334753084263 Z_730_0_4
   + 0.00284158315104538 Z_730_1_0 + 0.00116988923621964 Z_730_1_1
   + 0.2187980882972415 Z_730_1_2 + 0.00384290847286344 Z_730_1_3
   + 0.67334753084263 Z_730_1_4 + 0.0154957880467758 Z_730_2_0
   + 0.0467845784114821 Z_730_2_1 + 0.4673521097932519 Z_730_2_2
   + 0.00344319697450033 Z_730_2_3 + 0.3669243267739898 Z_730_2_4
   + 0.0072644439756396 Z_730_4_0 + 0.2820792123755941 Z_730_4_1
   + 0.0856750717704564 Z_730_4_2 + 0.1632644709832483 Z_730_4_3
   + 0.3617168008950615 Z_730_4_4 + 5.6326554899222426e-04 Z_484_0_0
   + 0.0025255657126433 Z_484_0_1 + 0.7380329902369926 Z_484_0_2
   + 0.00230784104091587 Z_484_0_3 + 0.156570337460456 Z_484_0_4
   + 0.3751320053734201 Z_484_2_0 + 0.215146174339732 Z_484_2_1
   + 0.00801607513616289 Z_484_2_2 + 0.1016205097496602 Z_484_2_3
   + 0.2000852354010249 Z_484_2_4 + 0.00224396221041606 Z_411_0_0
   + 8.1167455852534074e-04 Z_411_0_1 + 0.1341013008547846 Z_411_0_2
   + 0.0357797161264582 Z_411_0_3 + 0.7270633462498158 Z_411_0_4
   + 3.8772e-05 Z_411_6_0 + 0.0159562652452347 Z_411_6_1
   + 0.8704075692745887 Z_411_6_2 + 8.1583153635374803e-04 Z_411_6_3
   + 0.0127815619332981 Z_411_6_4 + 0.00686595635399073 Z_411_1_0
   + 0.0164195206477476 Z_411_1_1 + 0.036426788306166 Z_411_1_2
   + 0.6067988794031011 Z_411_1_3 + 0.2334888552889947 Z_411_1_4
   + 0.0170855817964216 Z_709_0_0 + 0.00363648731583295 Z_709_0_1
   + 0.0835955498564507 Z_709_0_2 + 0.00543802741255907 Z_709_0_3
   + 0.7902443536187356 Z_709_0_4 + 0.00770320257359547 Z_709_1_0
   + 0.0641199731111605 Z_709_1_1 + 0.00865148950348258 Z_709_1_2
   + 0.00219076479555859 Z_709_1_3 + 0.8173345700162029 Z_709_1_4
Subject To
 constraint1_1580: Z_158_0_0 + Z_158_0_1 + Z_158_0_2 + Z_158_0_3
   + Z_158_0_4 <= 1
 constraint1_1460: Z_146_0_0 + Z_146_0_1 + Z_146_0_2 + Z_146_0_3
   + Z_146_0_4 <= 1
 constraint1_7303: Z_730_3_0 + Z_730_3_1 + Z_730_3_2 + Z_730_3_3
   + Z_730_3_4 <= 1
 constraint1_7300: Z_730_0_0 + Z_730_0_1 + Z_730_0_2 + Z_730_0_3
   + Z_730_0_4 <= 1
 constraint1_7301: Z_730_1_0 + Z_730_1_1 + Z_730_1_2 + Z_730_1_3
   + Z_730_1_4 <= 1
 constraint1_7302: Z_730_2_0 + Z_730_2_1 + Z_730_2_2 + Z_730_2_3
   + Z_730_2_4 <= 1
 constraint1_7304: Z_730_4_0 + Z_730_4_1 + Z_730_4_2 + Z_730_4_3
   + Z_730_4_4 <= 1
 constraint1_4840: Z_484_0_0 + Z_484_0_1 + Z_484_0_2 + Z_484_0_3
   + Z_484_0_4 <= 1
 constraint1_4842: Z_484_2_0 + Z_484_2_1 + Z_484_2_2 + Z_484_2_3
   + Z_484_2_4 <= 1
 constraint1_4110: Z_411_0_0 + Z_411_0_1 + Z_411_0_2 + Z_411_0_3
   + Z_411_0_4 <= 1
 constraint1_4116: Z_411_6_0 + Z_411_6_1 + Z_411_6_2 + Z_411_6_3
   + Z_411_6_4 <= 1
 constraint1_4111: Z_411_1_0 + Z_411_1_1 + Z_411_1_2 + Z_411_1_3
   + Z_411_1_4 <= 1
 constraint1_7090: Z_709_0_0 + Z_709_0_1 + Z_709_0_2 + Z_709_0_3
   + Z_709_0_4 <= 1
 constraint1_7091: Z_709_1_0 + Z_709_1_1 + Z_709_1_2 + Z_709_1_3
   + Z_709_1_4 <= 1
 constraint2_1580: Z_158_0_0 <= 1
 constraint2_1581: Z_158_0_1 <= 1
 constraint2_1582: Z_158_0_2 <= 1
 constraint2_1583: Z_158_0_3 <= 1
 constraint2_2970: <= 1
 constraint2_2971: <= 1
 constraint2_2972: <= 1
 constraint2_2973: <= 1
 constraint2_1460: Z_146_0_0 <= 1
 constraint2_1461: Z_146_0_1 <= 1
 constraint2_1462: Z_146_0_2 <= 1
 constraint2_1463: Z_146_0_3 <= 1
 constraint2_7300: Z_730_3_0 + Z_730_0_0 + Z_730_1_0 + Z_730_2_0
   + Z_730_4_0 <= 1
 constraint2_7301: Z_730_3_1 + Z_730_0_1 + Z_730_1_1 + Z_730_2_1
   + Z_730_4_1 <= 1
 constraint2_7302: Z_730_3_2 + Z_730_0_2 + Z_730_1_2 + Z_730_2_2
   + Z_730_4_2 <= 1
 constraint2_7303: Z_730_3_3 + Z_730_0_3 + Z_730_1_3 + Z_730_2_3
   + Z_730_4_3 <= 1
 constraint2_3760: <= 1
 constraint2_3761: <= 1
 constraint2_3762: <= 1
 constraint2_3763: <= 1
 constraint2_4840: Z_484_0_0 + Z_484_2_0 <= 1
 constraint2_4841: Z_484_0_1 + Z_484_2_1 <= 1
 constraint2_4842: Z_484_0_2 + Z_484_2_2 <= 1
 constraint2_4843: Z_484_0_3 + Z_484_2_3 <= 1
 constraint2_1930: <= 1
 constraint2_1931: <= 1
 constraint2_1932: <= 1
 constraint2_1933: <= 1
 constraint2_4110: Z_411_0_0 + Z_411_6_0 + Z_411_1_0 <= 1
 constraint2_4111: Z_411_0_1 + Z_411_6_1 + Z_411_1_1 <= 1
 constraint2_4112: Z_411_0_2 + Z_411_6_2 + Z_411_1_2 <= 1
 constraint2_4113: Z_411_0_3 + Z_411_6_3 + Z_411_1_3 <= 1
 constraint2_7090: Z_709_0_0 + Z_709_1_0 <= 1
 constraint2_7091: Z_709_0_1 + Z_709_1_1 <= 1
 constraint2_7092: Z_709_0_2 + Z_709_1_2 <= 1
 constraint2_7093: Z_709_0_3 + Z_709_1_3 <= 1
Bounds
Binaries
 Z_158_0_0 Z_158_0_1 Z_158_0_2 Z_158_0_3 Z_158_0_4 Z_146_0_0 Z_146_0_1
 Z_146_0_2 Z_146_0_3 Z_146_0_4 Z_730_3_0 Z_730_3_1 Z_730_3_2 Z_730_3_3
 Z_730_3_4 Z_730_0_0 Z_730_0_1 Z_730_0_2 Z_730_0_3 Z_730_0_4 Z_730_1_0
 Z_730_1_1 Z_730_1_2 Z_730_1_3 Z_730_1_4 Z_730_2_0 Z_730_2_1 Z_730_2_2
 Z_730_2_3 Z_730_2_4 Z_730_4_0 Z_730_4_1 Z_730_4_2 Z_730_4_3 Z_730_4_4
 Z_484_0_0 Z_484_0_1 Z_484_0_2 Z_484_0_3 Z_484_0_4 Z_484_2_0 Z_484_2_1
 Z_484_2_2 Z_484_2_3 Z_484_2_4 Z_411_0_0 Z_411_0_1 Z_411_0_2 Z_411_0_3
 Z_411_0_4 Z_411_6_0 Z_411_6_1 Z_411_6_2 Z_411_6_3 Z_411_6_4 Z_411_1_0
 Z_411_1_1 Z_411_1_2 Z_411_1_3 Z_411_1_4 Z_709_0_0 Z_709_0_1 Z_709_0_2
 Z_709_0_3 Z_709_0_4 Z_709_1_0 Z_709_1_1 Z_709_1_2 Z_709_1_3 Z_709_1_4
End
