output/chemical change_ilp.sol
# Solution for model chemical change_srl_ilp
# Objective value = 9.6002718982503978e+00
Z_158_0_0 0
Z_158_0_1 0
Z_158_0_2 1
Z_158_0_3 0
Z_158_0_4 0
Z_146_0_0 0
Z_146_0_1 0
Z_146_0_2 0
Z_146_0_3 0
Z_146_0_4 1
Z_730_3_0 0
Z_730_3_1 0
Z_730_3_2 0
Z_730_3_3 0
Z_730_3_4 1
Z_730_0_0 0
Z_730_0_1 0
Z_730_0_2 0
Z_730_0_3 0
Z_730_0_4 1
Z_730_1_0 0
Z_730_1_1 0
Z_730_1_2 0
Z_730_1_3 0
Z_730_1_4 1
Z_730_2_0 0
Z_730_2_1 0
Z_730_2_2 1
Z_730_2_3 0
Z_730_2_4 0
Z_730_4_0 0
Z_730_4_1 0
Z_730_4_2 0
Z_730_4_3 0
Z_730_4_4 1
Z_484_0_0 0
Z_484_0_1 0
Z_484_0_2 1
Z_484_0_3 0
Z_484_0_4 0
Z_484_2_0 1
Z_484_2_1 0
Z_484_2_2 0
Z_484_2_3 0
Z_484_2_4 0
Z_411_0_0 0
Z_411_0_1 0
Z_411_0_2 0
Z_411_0_3 0
Z_411_0_4 1
Z_411_6_0 0
Z_411_6_1 0
Z_411_6_2 1
Z_411_6_3 0
Z_411_6_4 0
Z_411_1_0 0
Z_411_1_1 0
Z_411_1_2 0
Z_411_1_3 1
Z_411_1_4 0
Z_709_0_0 0
Z_709_0_1 0
Z_709_0_2 0
Z_709_0_3 0
Z_709_0_4 1
Z_709_1_0 0
Z_709_1_1 0
Z_709_1_2 0
Z_709_1_3 0
Z_709_1_4 1
